NAME:  test1
TYPE: AGTSP
COMMENT: gtsp tours
DIMENSION:  49
GTSP_SETS: 13
EDGE_WEIGHT_TYPE: EXPLICIT
EDGE_WEIGHT_FORMAT: FULL_MATRIX 
EDGE_WEIGHT_SECTION
999999	0	999999	999999	20462	20462	20462	20454	20462	20462	20462	20454	20471	20471	20471	20463	20481	20481	20481	20473	20457	20457	20449	999999	20448	20448	20440	999999	20479	20479	20479	20471	20474	20474	20474	20466	20464	20464	20464	20456	20471	20471	20471	20463	20456
999999	999999	0	999999	20462	20462	20462	999999	20462	20462	20462	999999	20471	20471	20471	999999	20481	20481	20481	999999	20457	20457	20457	20449	20448	20448	20448	20440	20479	20479	20479	999999	20474	20474	20474	999999	20464	20464	20464	999999	20471	20471	20471	999999	20456
999999	999999	999999	0	20462	20462	20462	20462	20462	20462	20462	20462	20471	20471	20471	20471	20481	20481	20481	20481	20457	20457	20457	20457	20448	20448	20448	20448	20479	20479	20479	20479	20474	20474	20474	20474	20464	20464	20464	20464	20471	20471	20471	20471	20456
0	999999	999999	999999	20462	20462	20454	999999	20462	20462	20454	999999	20471	20471	20463	999999	20481	20481	20473	999999	20457	20449	999999	999999	20448	20440	999999	999999	20479	20479	20471	999999	20474	20474	20466	999999	20464	20464	20456	999999	20471	20471	20463	999999	20456
20462	20462	20462	20454	999999	0	999999	999999	20448	20448	20440	999999	20487	20487	999999	999999	20499	20499	999999	999999	20473	20473	20473	20465	20456	20456	20448	999999	20499	20499	999999	999999	20487	20487	999999	999999	20483	20483	999999	999999	20493	20493	999999	999999	20453
20462	20462	20462	999999	999999	999999	0	999999	20448	20448	20448	20440	20487	20487	20487	999999	20499	20499	20499	999999	20473	20473	20473	999999	20456	20456	20456	20448	20499	20499	20499	999999	20487	20487	20487	999999	20483	20483	20483	999999	20493	20493	20493	999999	20453
20462	20462	20462	20462	999999	999999	999999	0	20448	20448	20448	20448	20487	20487	20487	20487	20499	20499	20499	20499	20473	20473	20473	20473	20456	20456	20456	20456	20499	20499	20499	20499	20487	20487	20487	20487	20483	20483	20483	20483	20493	20493	20493	20493	20453
20462	20462	20454	999999	0	999999	999999	999999	20448	20440	999999	999999	20487	20487	20487	20479	20499	20499	20499	20491	20473	20473	20465	999999	20456	20448	999999	999999	20499	20499	20499	20491	20487	20487	20487	20479	20483	20483	20483	20475	20493	20493	20493	20485	20453
20462	20462	20462	20454	20448	20448	20440	999999	999999	0	999999	999999	20483	20483	999999	999999	20495	20495	999999	999999	20477	20477	20477	20469	20455	20455	20447	999999	20496	20496	999999	999999	20481	20481	20481	20473	20486	20486	999999	999999	20494	20494	999999	999999	20448
20462	20462	20462	999999	20448	20448	20448	20440	999999	999999	0	999999	20483	20483	20483	999999	20495	20495	20495	999999	20477	20477	20477	999999	20455	20455	20455	20447	20496	20496	20496	999999	20481	20481	20481	999999	20486	20486	20486	999999	20494	20494	20494	999999	20448
20462	20462	20462	20462	20448	20448	20448	20448	999999	999999	999999	0	20483	20483	20483	20483	20495	20495	20495	20495	20477	20477	20477	20477	20455	20455	20455	20455	20496	20496	20496	20496	20481	20481	20481	20481	20486	20486	20486	20486	20494	20494	20494	20494	20448
20462	20462	20454	999999	20448	20440	999999	999999	0	999999	999999	999999	20483	20483	20483	20475	20495	20495	20495	20487	20477	20477	20469	999999	20455	20447	999999	999999	20496	20496	20496	20488	20481	20481	20473	999999	20486	20486	20486	20478	20494	20494	20494	20486	20448
20471	20471	20471	20463	20487	20487	999999	999999	20483	20483	999999	999999	999999	0	999999	999999	20451	20451	20443	999999	20483	20483	999999	999999	20470	20470	20470	20462	20455	20455	20447	999999	20449	20449	20441	999999	20481	20481	20481	20473	20473	20473	20473	20465	20474
20471	20471	20471	999999	20487	20487	20487	999999	20483	20483	20483	999999	999999	999999	0	999999	20451	20451	20451	20443	20483	20483	20483	999999	20470	20470	20470	999999	20455	20455	20455	20447	20449	20449	20449	20441	20481	20481	20481	999999	20473	20473	20473	999999	20474
20471	20471	20471	20471	20487	20487	20487	20487	20483	20483	20483	20483	999999	999999	999999	0	20451	20451	20451	20451	20483	20483	20483	20483	20470	20470	20470	20470	20455	20455	20455	20455	20449	20449	20449	20449	20481	20481	20481	20481	20473	20473	20473	20473	20474
20471	20471	20463	999999	20487	20487	20487	20479	20483	20483	20483	20475	0	999999	999999	999999	20451	20443	999999	999999	20483	20483	20483	20475	20470	20470	20462	999999	20455	20447	999999	999999	20449	20441	999999	999999	20481	20481	20473	999999	20473	20473	20465	999999	20474
20481	20481	20481	20473	20499	20499	999999	999999	20495	20495	999999	999999	20451	20451	20443	999999	999999	0	999999	999999	20491	20491	999999	999999	20482	20482	999999	999999	20448	20448	20440	999999	20457	20457	20449	999999	20488	20488	999999	999999	20475	20475	20475	20467	20486
20481	20481	20481	999999	20499	20499	20499	999999	20495	20495	20495	999999	20451	20451	20451	20443	999999	999999	0	999999	20491	20491	20491	999999	20482	20482	20482	999999	20448	20448	20448	20440	20457	20457	20457	20449	20488	20488	20488	999999	20475	20475	20475	999999	20486
20481	20481	20481	20481	20499	20499	20499	20499	20495	20495	20495	20495	20451	20451	20451	20451	999999	999999	999999	0	20491	20491	20491	20491	20482	20482	20482	20482	20448	20448	20448	20448	20457	20457	20457	20457	20488	20488	20488	20488	20475	20475	20475	20475	20486
20481	20481	20473	999999	20499	20499	20499	20491	20495	20495	20495	20487	20451	20443	999999	999999	0	999999	999999	999999	20491	20491	20491	20483	20482	20482	20482	20474	20448	20440	999999	999999	20457	20449	999999	999999	20488	20488	20488	20480	20475	20475	20467	999999	20486
20457	20457	20449	999999	20473	20473	20473	20465	20477	20477	20477	20469	20483	20483	999999	999999	20491	20491	999999	999999	999999	0	999999	999999	20466	20466	20466	20458	20486	20486	999999	999999	20489	20489	999999	999999	20450	20450	20442	999999	20466	20466	20466	20458	20473
20457	20457	20457	20449	20473	20473	20473	999999	20477	20477	20477	999999	20483	20483	20483	999999	20491	20491	20491	999999	999999	999999	0	999999	20466	20466	20466	999999	20486	20486	20486	999999	20489	20489	20489	999999	20450	20450	20450	20442	20466	20466	20466	999999	20473
20457	20457	20457	20457	20473	20473	20473	20473	20477	20477	20477	20477	20483	20483	20483	20483	20491	20491	20491	20491	999999	999999	999999	0	20466	20466	20466	20466	20486	20486	20486	20486	20489	20489	20489	20489	20450	20450	20450	20450	20466	20466	20466	20466	20473
20457	20449	999999	999999	20473	20473	20465	999999	20477	20477	20469	999999	20483	20483	20483	20475	20491	20491	20491	20483	0	999999	999999	999999	20466	20466	20458	999999	20486	20486	20486	20478	20489	20489	20489	20481	20450	20442	999999	999999	20466	20466	20458	999999	20473
20448	20448	20440	999999	20456	20456	20448	999999	20455	20455	20447	999999	20470	20470	20470	20462	20482	20482	999999	999999	20466	20466	20466	20458	999999	0	999999	999999	20482	20482	999999	999999	20472	20472	20472	20464	20473	20473	20473	20465	20478	20478	20478	20470	20448
20448	20448	20448	20440	20456	20456	20456	20448	20455	20455	20455	20447	20470	20470	20470	999999	20482	20482	20482	999999	20466	20466	20466	999999	999999	999999	0	999999	20482	20482	20482	999999	20472	20472	20472	999999	20473	20473	20473	999999	20478	20478	20478	999999	20448
20448	20448	20448	20448	20456	20456	20456	20456	20455	20455	20455	20455	20470	20470	20470	20470	20482	20482	20482	20482	20466	20466	20466	20466	999999	999999	999999	0	20482	20482	20482	20482	20472	20472	20472	20472	20473	20473	20473	20473	20478	20478	20478	20478	20448
20448	20440	999999	999999	20456	20448	999999	999999	20455	20447	999999	999999	20470	20470	20462	999999	20482	20482	20482	20474	20466	20466	20458	999999	0	999999	999999	999999	20482	20482	20482	20474	20472	20472	20464	999999	20473	20473	20465	999999	20478	20478	20470	999999	20448
20479	20479	20479	20471	20499	20499	999999	999999	20496	20496	999999	999999	20455	20455	20447	999999	20448	20448	20440	999999	20486	20486	999999	999999	20482	20482	999999	999999	999999	0	999999	999999	20463	20463	20463	20455	20481	20481	20481	20473	20467	20467	20467	20459	20487
20479	20479	20479	999999	20499	20499	20499	999999	20496	20496	20496	999999	20455	20455	20455	20447	20448	20448	20448	20440	20486	20486	20486	999999	20482	20482	20482	999999	999999	999999	0	999999	20463	20463	20463	999999	20481	20481	20481	999999	20467	20467	20467	999999	20487
20479	20479	20479	20479	20499	20499	20499	20499	20496	20496	20496	20496	20455	20455	20455	20455	20448	20448	20448	20448	20486	20486	20486	20486	20482	20482	20482	20482	999999	999999	999999	0	20463	20463	20463	20463	20481	20481	20481	20481	20467	20467	20467	20467	20487
20479	20479	20471	999999	20499	20499	20499	20491	20496	20496	20496	20488	20455	20447	999999	999999	20448	20440	999999	999999	20486	20486	20486	20478	20482	20482	20482	20474	0	999999	999999	999999	20463	20463	20455	999999	20481	20481	20473	999999	20467	20467	20459	999999	20487
20474	20474	20474	20466	20487	20487	999999	999999	20481	20481	20481	20473	20449	20449	20441	999999	20457	20457	20449	999999	20489	20489	999999	999999	20472	20472	20472	20464	20463	20463	20463	20455	999999	0	999999	999999	20489	20489	999999	999999	20482	20482	20482	20474	20473
20474	20474	20474	999999	20487	20487	20487	999999	20481	20481	20481	999999	20449	20449	20449	20441	20457	20457	20457	20449	20489	20489	20489	999999	20472	20472	20472	999999	20463	20463	20463	999999	999999	999999	0	999999	20489	20489	20489	999999	20482	20482	20482	999999	20473
20474	20474	20474	20474	20487	20487	20487	20487	20481	20481	20481	20481	20449	20449	20449	20449	20457	20457	20457	20457	20489	20489	20489	20489	20472	20472	20472	20472	20463	20463	20463	20463	999999	999999	999999	0	20489	20489	20489	20489	20482	20482	20482	20482	20473
20474	20474	20466	999999	20487	20487	20487	20479	20481	20481	20473	999999	20449	20441	999999	999999	20457	20449	999999	999999	20489	20489	20489	20481	20472	20472	20464	999999	20463	20463	20455	999999	0	999999	999999	999999	20489	20489	20489	20481	20482	20482	20474	999999	20473
20464	20464	20464	20456	20483	20483	999999	999999	20486	20486	999999	999999	20481	20481	20481	20473	20488	20488	999999	999999	20450	20450	20442	999999	20473	20473	20473	20465	20481	20481	20481	20473	20489	20489	999999	999999	999999	0	999999	999999	20457	20457	20449	999999	20481
20464	20464	20464	999999	20483	20483	20483	999999	20486	20486	20486	999999	20481	20481	20481	999999	20488	20488	20488	999999	20450	20450	20450	20442	20473	20473	20473	999999	20481	20481	20481	999999	20489	20489	20489	999999	999999	999999	0	999999	20457	20457	20457	20449	20481
20464	20464	20464	20464	20483	20483	20483	20483	20486	20486	20486	20486	20481	20481	20481	20481	20488	20488	20488	20488	20450	20450	20450	20450	20473	20473	20473	20473	20481	20481	20481	20481	20489	20489	20489	20489	999999	999999	999999	0	20457	20457	20457	20457	20481
20464	20464	20456	999999	20483	20483	20483	20475	20486	20486	20486	20478	20481	20481	20473	999999	20488	20488	20488	20480	20450	20442	999999	999999	20473	20473	20465	999999	20481	20481	20473	999999	20489	20489	20489	20481	0	999999	999999	999999	20457	20449	999999	999999	20481
20471	20471	20471	20463	20493	20493	999999	999999	20494	20494	999999	999999	20473	20473	20473	20465	20475	20475	20475	20467	20466	20466	20466	20458	20478	20478	20478	20470	20467	20467	20467	20459	20482	20482	20482	20474	20457	20457	20449	999999	999999	0	999999	999999	20486
20471	20471	20471	999999	20493	20493	20493	999999	20494	20494	20494	999999	20473	20473	20473	999999	20475	20475	20475	999999	20466	20466	20466	999999	20478	20478	20478	999999	20467	20467	20467	999999	20482	20482	20482	999999	20457	20457	20457	20449	999999	999999	0	999999	20486
20471	20471	20471	20471	20493	20493	20493	20493	20494	20494	20494	20494	20473	20473	20473	20473	20475	20475	20475	20475	20466	20466	20466	20466	20478	20478	20478	20478	20467	20467	20467	20467	20482	20482	20482	20482	20457	20457	20457	20457	999999	999999	999999	0	20486
20471	20471	20463	999999	20493	20493	20493	20485	20494	20494	20494	20486	20473	20473	20465	999999	20475	20475	20467	999999	20466	20466	20458	999999	20478	20478	20470	999999	20467	20467	20459	999999	20482	20482	20474	999999	20457	20449	999999	999999	0	999999	999999	999999	20486
20456	20456	20448	999999	20453	20453	20445	999999	20448	20448	20440	999999	20474	20474	20474	20466	20486	20486	999999	999999	20473	20473	20473	20465	20448	20448	20440	999999	20487	20487	999999	999999	20473	20473	20473	20465	20481	20481	20481	20473	20486	20486	999999	999999	999999
GTSP_SET_SECTION:
1 1 2 3 4 -1
2 5 6 7 8 -1
3 9 10 11 12 -1
4 13 14 15 16 -1
5 17 18 19 20 -1
6 21 22 23 24 -1
7 25 26 27 28 -1
8 29 30 31 32 -1
9 33 34 35 36 -1
10 37 38 39 40 -1
11 41 42 43 44 -1
12 45 46 47 48 -1
13 49 -1
EOF